
  22   10
  10   10   10   10   10   10   10   10   10   10

   0   0   0   0   0   0   0   0   0   0   0   6 2 3 4 8 9 16 
  10  10  10  10  10  10  10  10  10  10  10   4 15 11 6 5 
   2  10  10  10  10  10  10  10  10  10  10   3 15 12 5 
   9  10  10  10  10  10  10  10  10  10  10   5 20 15 14 11 7 
   1  10  10  10  10  10  10  10  10  10  10   4 21 20 14 7 
   2  10  10  10  10  10  10  10  10  10  10   4 20 18 14 13 
   8  10  10  10  10  10  10  10  10  10  10   2 19 10 
   3  10  10  10  10  10  10  10  10  10  10   2 21 10 
   1  10  10  10  10  10  10  10  10  10  10   3 19 18 17 
   1  10  10  10  10  10  10  10  10  10  10   2 18 13 
   7  10  10  10  10  10  10  10  10  10  10   2 18 13 
   1  10  10  10  10  10  10  10  10  10  10   2 20 13 
   5  10  10  10  10  10  10  10  10  10  10   1 17 
   9  10  10  10  10  10  10  10  10  10  10   1 19 
   2  10  10  10  10  10  10  10  10  10  10   1 21 
   3  10  10  10  10  10  10  10  10  10  10   1 19 
   8  10  10  10  10  10  10  10  10  10  10   1 22
   9  10  10  10  10  10  10  10  10  10  10   1 22
   9  10  10  10  10  10  10  10  10  10  10   1 22
   2  10  10  10  10  10  10  10  10  10  10   1 22
   8  10  10  10  10  10  10  10  10  10  10   1 22
   0   0   0   0   0   0   0   0   0   0   0   0 
